c 
c MolecularSimulation 0.9.3
c Simulation written: Jan 13 2012 -- 15:17:57
c Test: Distribution
c Input: ./data/testCNF/SWEEP_R1_K3_N16_M16_S001.cnf
c 
s SATISFIABLE
v 1 2 4 -5 6 7 -8 9 -10 -11 -12 13 14 -16 0
c algorithmTime:  13
c solutionMemory: 50391
c mixCount:       45
c extractCount:   0
c appendCount:    410116
c splitCount:     45
c spliceCount:    180709
c purifyCount:    15
c 
